%mem = 4Gb
%Chk=co3.chk
#p B3LYP/6-31+G(d,p) Opt freq=noraman

co3

-2  1
C      0.000000    0.000000    0.000000
O      1.278000    0.000000    0.000000
O     -0.639000    1.106600    0.000000
O     -0.639000   -1.106600    0.000000

