%mem = 24Gb
%nprocshared=8
%Chk=mtfsi.chk
#p B3LYP/6-31+G(d,p) Opt freq=noraman

mtfsi - input

-1  1
H      0.2792422207    0.2410456132    0.6876939790
C     -0.3275370146    1.0828307786    0.2915059928
C     -1.4376737644    1.4977577503    1.2695607509
H     -0.7404976669    0.7734728716   -0.6921855481
H      0.3596547029    1.9293438406    0.0777131348
C     -0.8321710400    2.0519777730    2.5672441449
C     -2.4411662400    0.3825355182    1.4828559993
H     -1.9918039783    2.3422334124    0.7977287563
H     -0.1617979032    2.9146879319    2.3638526975
H     -0.2406630141    1.2800222107    3.1052618770
H     -1.6255092333    2.4214514245    3.2513126918
O     -2.6960707206   -0.0744391067    2.7058970837
O     -3.0431805007   -0.0361117032    0.5042935730
C     -3.6616910705   -1.1067359410    2.9274549059
C     -3.7985262389   -1.4052033513    4.4217245593
H     -3.3315572009   -2.0322499531    2.4043601710
H     -4.6533359655   -0.7760604221    2.5460566246
C     -4.7353058100   -2.5759089955    4.7389457766
H     -4.1695830387   -0.4935517182    4.9397036188
H     -2.7935149841   -1.6443696684    4.8353923920
S     -6.6842320839   -2.2057937232    4.0527712420
H     -4.7797221342   -2.7026892558    5.8421247962
H     -4.3447772669   -3.5128824662    4.2877007906
N     -7.2984081167   -4.0826699486    4.4870377308
O     -8.2412716521   -1.7956881995    3.4183754222
O     -6.2607606254   -2.7893016823    2.4777166012
S     -8.6295735164   -4.1679090892    6.0060009094
C     -7.3612669386   -5.3849940380    7.1468883653
O     -7.9795962112   -2.7156033936    6.6916162760
O     -9.7962593345   -3.2505648942    5.1149718678
F     -6.1915943024   -4.7299724555    7.4797078687
F     -7.0606876626   -6.5337189968    6.4397082149
F     -8.0210260088   -5.7313348596    8.3114757630

