%mem = 4Gb
%Chk=vec.chk
#p B3LYP/6-31+G(d,p) Opt freq=noraman

vec-solvent

0  1
O	1.000	1.000	0.000
C	-0.417	1.000	0.000
C	-0.771	1.000	1.462
C	-0.913	2.374	2.062
C	-2.03	2.837	2.639
O	0.342	0.352	2.055
C	1.392	0.476	1.198
O	2.539	0.16	1.466
H	-0.755	0.086	-0.502
H	-0.803	1.865	-0.548
H	-1.677	0.408	1.637
H	-0.04	3.025	2.019
H	-2.932	2.237	2.714
H	-2.062	3.841	3.053

